(set-logic HORN)
(declare-fun invariant (Real Real Real Bool Bool Real Bool Bool Bool Bool Bool Bool Real Bool Bool Bool Bool Bool Bool Bool Bool Real Bool Bool Bool Bool Bool Bool Bool Bool Real Real Real Real Real Real Real Real Real Real Real) Bool)

;; Initial state
(assert
  (forall ((state.button_count Real) (state.button_dispatch_time Real) (state.button_frame_count Real) (state.button_pressed Bool) (state.button_pressed_prev Bool) (state.button_width Real) (state.chan_a_com_auto_mode Bool) (state.chan_a_com_prev_button Bool) (state.chan_a_com_prev_button_pressed Bool) (state.chan_a_in_control Bool) (state.chan_a_mon_agreement_failure Bool) (state.chan_a_mon_auto_mode Bool) (state.chan_a_mon_disagree_count Real) (state.chan_a_mon_prev_button Bool) (state.chan_a_mon_prev_button_pressed Bool) (state.chan_b_com_auto_mode Bool) (state.chan_b_com_prev_button Bool) (state.chan_b_com_prev_button_pressed Bool) (state.chan_b_in_control Bool) (state.chan_b_mon_agreement_failure Bool) (state.chan_b_mon_auto_mode Bool) (state.chan_b_mon_disagree_count Real) (state.chan_b_mon_prev_button Bool) (state.chan_b_mon_prev_button_pressed Bool) (state.complete_arr!0 Bool) (state.complete_arr!1 Bool) (state.complete_arr!2 Bool) (state.complete_arr!3 Bool) (state.complete_arr!4 Bool) (state.seen_rising_edge Bool) (state.time Real) (state.time_arri!0 Real) (state.time_arri!1 Real) (state.time_arri!2 Real) (state.time_arri!3 Real) (state.time_arri!4 Real) (state.time_prev Real) (state.NODE2_PHASE Real) (state.NODE3_PHASE Real) (state.NODE4_PHASE Real) (state.NODE5_PHASE Real))
    (=> (let ((l0 (= |state.time_arri!0| 20))) (let ((l1 (= |state.button_pressed| false))) (let ((l2 (= |state.button_pressed_prev| false))) (let ((l3 (= |state.button_count| 0))) (let ((l4 (= |state.time| 0))) (let ((l5 (= |state.button_frame_count| 0))) (let ((l6 (= |state.button_dispatch_time| 20))) (let ((l7 (= |state.time_arri!1| |state.NODE2_PHASE|))) (let ((l8 (= |state.chan_a_com_prev_button_pressed| false))) (let ((l9 (= |state.chan_a_com_auto_mode| false))) (let ((l10 (= |state.time_arri!2| |state.NODE3_PHASE|))) (let ((l11 (= |state.chan_a_mon_auto_mode| false))) (let ((l12 (= |state.chan_a_mon_prev_button_pressed| false))) (let ((l13 (= |state.chan_a_mon_disagree_count| 0))) (let ((l14 (= |state.chan_a_in_control| true))) (let ((l15 (= |state.chan_a_mon_agreement_failure| false))) (let ((l16 (= |state.time_arri!3| |state.NODE2_PHASE|))) (let ((l17 (= |state.chan_b_com_prev_button_pressed| false))) (let ((l18 (= |state.chan_b_com_auto_mode| false))) (let ((l19 (= |state.time_arri!4| |state.NODE3_PHASE|))) (let ((l20 (= |state.chan_b_mon_auto_mode| false))) (let ((l21 (= |state.chan_b_mon_prev_button_pressed| false))) (let ((l22 (= |state.chan_b_mon_disagree_count| 0))) (let ((l23 (= |state.chan_b_in_control| true))) (let ((l24 (= |state.chan_b_mon_agreement_failure| false))) (let ((l25 (= |state.time_prev| 0))) (let ((l26 (= |state.seen_rising_edge| false))) (let ((l27 (and l0 l1 l2 l3 l4 l5 l6 l7 l8 l9 l10 l11 l12 l13 l14 l15 l16 l17 l18 l19 l20 l21 l22 l23 l24 l25 l26))) (let ((l28 (<= |state.time| |state.time_arri!0|))) (let ((l29 (<= |state.time| |state.time_arri!1|))) (let ((l30 (<= |state.time| |state.time_arri!2|))) (let ((l31 (<= |state.time| |state.time_arri!3|))) (let ((l32 (<= |state.time| |state.time_arri!4|))) (let ((l33 (= |state.time| |state.time_arri!0|))) (let ((l34 (= |state.time| |state.time_arri!1|))) (let ((l35 (= |state.time| |state.time_arri!2|))) (let ((l36 (= |state.time| |state.time_arri!3|))) (let ((l37 (= |state.time| |state.time_arri!4|))) (let ((l38 (or l33 l34 l35 l36 l37))) (let ((l39 (<= 0 |state.NODE2_PHASE|))) (let ((l40 (< |state.NODE2_PHASE| 20))) (let ((l41 (<= 0 |state.NODE3_PHASE|))) (let ((l42 (< |state.NODE3_PHASE| 20))) (let ((l43 (<= 0 |state.NODE4_PHASE|))) (let ((l44 (< |state.NODE4_PHASE| 20))) (let ((l45 (<= 0 |state.NODE5_PHASE|))) (let ((l46 (< |state.NODE5_PHASE| 20))) (let ((l47 (<= 0 |state.button_dispatch_time|))) (let ((l48 (<= 0 |state.button_width|))) (let ((l49 (<= 0 |state.time|))) (let ((l50 (<= 0 |state.time_arri!0|))) (let ((l51 (<= 0 |state.time_arri!1|))) (let ((l52 (<= 0 |state.time_arri!2|))) (let ((l53 (<= 0 |state.time_arri!3|))) (let ((l54 (<= 0 |state.time_arri!4|))) (let ((l55 (<= 0 |state.time_prev|))) (let ((l56 (and l28 l29 l30 l31 l32 l38 l39 l40 l41 l42 l43 l44 l45 l46 l47 l48 l49 l50 l51 l52 l53 l54 l55))) (let ((l57 (and l27 l56))) l57))))))))))))))))))))))))))))))))))))))))))))))))))))))))))
        (invariant state.button_count state.button_dispatch_time state.button_frame_count state.button_pressed state.button_pressed_prev state.button_width state.chan_a_com_auto_mode state.chan_a_com_prev_button state.chan_a_com_prev_button_pressed state.chan_a_in_control state.chan_a_mon_agreement_failure state.chan_a_mon_auto_mode state.chan_a_mon_disagree_count state.chan_a_mon_prev_button state.chan_a_mon_prev_button_pressed state.chan_b_com_auto_mode state.chan_b_com_prev_button state.chan_b_com_prev_button_pressed state.chan_b_in_control state.chan_b_mon_agreement_failure state.chan_b_mon_auto_mode state.chan_b_mon_disagree_count state.chan_b_mon_prev_button state.chan_b_mon_prev_button_pressed state.complete_arr!0 state.complete_arr!1 state.complete_arr!2 state.complete_arr!3 state.complete_arr!4 state.seen_rising_edge state.time state.time_arri!0 state.time_arri!1 state.time_arri!2 state.time_arri!3 state.time_arri!4 state.time_prev state.NODE2_PHASE state.NODE3_PHASE state.NODE4_PHASE state.NODE5_PHASE))
  )
)

;; Transition relation
(assert
  (forall ((state.button_count Real) (next.button_count Real) (state.button_dispatch_time Real) (next.button_dispatch_time Real) (state.button_frame_count Real) (next.button_frame_count Real) (state.button_pressed Bool) (next.button_pressed Bool) (state.button_pressed_prev Bool) (next.button_pressed_prev Bool) (state.button_width Real) (next.button_width Real) (state.chan_a_com_auto_mode Bool) (next.chan_a_com_auto_mode Bool) (state.chan_a_com_prev_button Bool) (next.chan_a_com_prev_button Bool) (state.chan_a_com_prev_button_pressed Bool) (next.chan_a_com_prev_button_pressed Bool) (state.chan_a_in_control Bool) (next.chan_a_in_control Bool) (state.chan_a_mon_agreement_failure Bool) (next.chan_a_mon_agreement_failure Bool) (state.chan_a_mon_auto_mode Bool) (next.chan_a_mon_auto_mode Bool) (state.chan_a_mon_disagree_count Real) (next.chan_a_mon_disagree_count Real) (state.chan_a_mon_prev_button Bool) (next.chan_a_mon_prev_button Bool) (state.chan_a_mon_prev_button_pressed Bool) (next.chan_a_mon_prev_button_pressed Bool) (state.chan_b_com_auto_mode Bool) (next.chan_b_com_auto_mode Bool) (state.chan_b_com_prev_button Bool) (next.chan_b_com_prev_button Bool) (state.chan_b_com_prev_button_pressed Bool) (next.chan_b_com_prev_button_pressed Bool) (state.chan_b_in_control Bool) (next.chan_b_in_control Bool) (state.chan_b_mon_agreement_failure Bool) (next.chan_b_mon_agreement_failure Bool) (state.chan_b_mon_auto_mode Bool) (next.chan_b_mon_auto_mode Bool) (state.chan_b_mon_disagree_count Real) (next.chan_b_mon_disagree_count Real) (state.chan_b_mon_prev_button Bool) (next.chan_b_mon_prev_button Bool) (state.chan_b_mon_prev_button_pressed Bool) (next.chan_b_mon_prev_button_pressed Bool) (state.complete_arr!0 Bool) (next.complete_arr!0 Bool) (state.complete_arr!1 Bool) (next.complete_arr!1 Bool) (state.complete_arr!2 Bool) (next.complete_arr!2 Bool) (state.complete_arr!3 Bool) (next.complete_arr!3 Bool) (state.complete_arr!4 Bool) (next.complete_arr!4 Bool) (state.seen_rising_edge Bool) (next.seen_rising_edge Bool) (state.time Real) (next.time Real) (state.time_arri!0 Real) (next.time_arri!0 Real) (state.time_arri!1 Real) (next.time_arri!1 Real) (state.time_arri!2 Real) (next.time_arri!2 Real) (state.time_arri!3 Real) (next.time_arri!3 Real) (state.time_arri!4 Real) (next.time_arri!4 Real) (state.time_prev Real) (next.time_prev Real) (state.NODE2_PHASE Real) (next.NODE2_PHASE Real) (state.NODE3_PHASE Real) (next.NODE3_PHASE Real) (state.NODE4_PHASE Real) (next.NODE4_PHASE Real) (state.NODE5_PHASE Real) (next.NODE5_PHASE Real))
    (=> (and (invariant state.button_count state.button_dispatch_time state.button_frame_count state.button_pressed state.button_pressed_prev state.button_width state.chan_a_com_auto_mode state.chan_a_com_prev_button state.chan_a_com_prev_button_pressed state.chan_a_in_control state.chan_a_mon_agreement_failure state.chan_a_mon_auto_mode state.chan_a_mon_disagree_count state.chan_a_mon_prev_button state.chan_a_mon_prev_button_pressed state.chan_b_com_auto_mode state.chan_b_com_prev_button state.chan_b_com_prev_button_pressed state.chan_b_in_control state.chan_b_mon_agreement_failure state.chan_b_mon_auto_mode state.chan_b_mon_disagree_count state.chan_b_mon_prev_button state.chan_b_mon_prev_button_pressed state.complete_arr!0 state.complete_arr!1 state.complete_arr!2 state.complete_arr!3 state.complete_arr!4 state.seen_rising_edge state.time state.time_arri!0 state.time_arri!1 state.time_arri!2 state.time_arri!3 state.time_arri!4 state.time_prev state.NODE2_PHASE state.NODE3_PHASE state.NODE4_PHASE state.NODE5_PHASE)
             (let ((l0 (= |state.time| |state.time_arri!0|))) (let ((l1 (not |state.button_pressed|))) (let ((l2 (= |state.button_count| 0))) (let ((l3 (= |next.button_pressed| true))) (let ((l4 (/ 20001 1000))) (let ((l5 (+ |state.time_arri!0| l4))) (let ((l6 (< |next.time_arri!0| l5))) (let ((l7 (not l6))) (let ((l8 (+ |state.time_arri!0| 40))) (let ((l9 (< |next.time_arri!0| l8))) (let ((l10 (and l7 l9))) (let ((l11 (+ |state.button_count| 1))) (let ((l12 (= |next.button_count| l11))) (let ((l13 (= |next.button_pressed_prev| |state.button_pressed|))) (let ((l14 (= |next.button_dispatch_time| |state.time_arri!0|))) (let ((l15 (+ |state.button_frame_count| 1))) (let ((l16 (= |next.button_frame_count| l15))) (let ((l17 (and l0 l1 l2 l3 l10 l12 l13 l14 l16))) (let ((l18 (= |state.button_count| 1))) (let ((l19 (+ 20 40))) (let ((l20 (= |next.time_arri!0| l19))) (let ((l21 (= |next.button_pressed| false))) (let ((l22 (= |next.button_frame_count| |state.button_frame_count|))) (let ((l23 (and l0 |state.button_pressed| l18 l20 l21 l12 l13 l14 l22))) (let ((l24 (<= |state.button_count| 1))) (let ((l25 (not l24))) (let ((l26 (= |next.time_arri!0| l8))) (let ((l27 (= |next.button_pressed| |state.button_pressed|))) (let ((l28 (= |next.button_pressed_prev| |state.button_pressed_prev|))) (let ((l29 (and l0 l25 l26 l12 l14 l16 l27 l28))) (let ((l30 (or l17 l23 l29))) (let ((l31 (= |next.chan_a_com_prev_button_pressed| |state.chan_a_com_prev_button_pressed|))) (let ((l32 (= |next.chan_a_com_auto_mode| |state.chan_a_com_auto_mode|))) (let ((l33 (= |next.time_arri!1| |state.time_arri!1|))) (let ((l34 (= |next.chan_a_mon_disagree_count| |state.chan_a_mon_disagree_count|))) (let ((l35 (= |next.chan_a_in_control| |state.chan_a_in_control|))) (let ((l36 (= |next.chan_a_mon_agreement_failure| |state.chan_a_mon_agreement_failure|))) (let ((l37 (= |next.chan_a_mon_prev_button_pressed| |state.chan_a_mon_prev_button_pressed|))) (let ((l38 (= |next.chan_a_mon_auto_mode| |state.chan_a_mon_auto_mode|))) (let ((l39 (= |next.time_arri!2| |state.time_arri!2|))) (let ((l40 (= |next.chan_b_com_prev_button_pressed| |state.chan_b_com_prev_button_pressed|))) (let ((l41 (= |next.chan_b_com_auto_mode| |state.chan_b_com_auto_mode|))) (let ((l42 (= |next.time_arri!3| |state.time_arri!3|))) (let ((l43 (= |next.chan_b_mon_disagree_count| |state.chan_b_mon_disagree_count|))) (let ((l44 (= |next.chan_b_in_control| |state.chan_b_in_control|))) (let ((l45 (= |next.chan_b_mon_agreement_failure| |state.chan_b_mon_agreement_failure|))) (let ((l46 (= |next.chan_b_mon_prev_button_pressed| |state.chan_b_mon_prev_button_pressed|))) (let ((l47 (= |next.chan_b_mon_auto_mode| |state.chan_b_mon_auto_mode|))) (let ((l48 (= |next.time_arri!4| |state.time_arri!4|))) (let ((l49 (and l30 l31 l32 l33 l34 l35 l36 l37 l38 l39 l40 l41 l42 l43 l44 l45 l46 l47 l48))) (let ((l50 (= |state.time| |state.time_arri!1|))) (let ((l51 (+ |state.time_arri!1| 20))) (let ((l52 (= |next.time_arri!1| l51))) (let ((l53 (not |state.chan_a_com_prev_button_pressed|))) (let ((l54 (and |state.button_pressed| l53))) (let ((l55 (not |state.chan_a_com_auto_mode|))) (let ((l56 (ite l54 l55 |state.chan_a_com_auto_mode|))) (let ((l57 (= |next.chan_a_com_auto_mode| l56))) (let ((l58 (= |next.chan_a_com_prev_button_pressed| |state.button_pressed|))) (let ((l59 (= |next.button_dispatch_time| |state.button_dispatch_time|))) (let ((l60 (= |next.button_count| |state.button_count|))) (let ((l61 (= |next.time_arri!0| |state.time_arri!0|))) (let ((l62 (and l50 l52 l57 l58 l22 l59 l60 l28 l27 l61 l34 l35 l36 l37 l38 l39 l40 l41 l42 l43 l44 l45 l46 l47 l48))) (let ((l63 (= |state.time| |state.time_arri!2|))) (let ((l64 (+ |state.time_arri!2| 20))) (let ((l65 (= |next.time_arri!2| l64))) (let ((l66 (not |state.chan_a_mon_prev_button_pressed|))) (let ((l67 (and |state.button_pressed| l66))) (let ((l68 (not |state.chan_a_mon_auto_mode|))) (let ((l69 (ite l67 l68 |state.chan_a_mon_auto_mode|))) (let ((l70 (= |next.chan_a_mon_auto_mode| l69))) (let ((l71 (= |state.chan_a_com_auto_mode| |next.chan_a_mon_auto_mode|))) (let ((l72 (<= |state.chan_a_mon_disagree_count| 3))) (let ((l73 (+ |state.chan_a_mon_disagree_count| 1))) (let ((l74 (ite l72 l73 |state.chan_a_mon_disagree_count|))) (let ((l75 (ite l71 0 l74))) (let ((l76 (= |next.chan_a_mon_disagree_count| l75))) (let ((l77 (<= |next.chan_a_mon_disagree_count| 2))) (let ((l78 (not l77))) (let ((l79 (= |next.chan_a_mon_agreement_failure| l78))) (let ((l80 (not |next.chan_a_mon_agreement_failure|))) (let ((l81 (= |next.chan_a_in_control| l80))) (let ((l82 (= |next.chan_a_mon_prev_button_pressed| |state.button_pressed|))) (let ((l83 (and l63 l65 l70 l76 l79 l81 l82 l22 l59 l60 l28 l27 l61 l31 l32 l33 l40 l41 l42 l43 l44 l45 l46 l47 l48))) (let ((l84 (= |state.time| |state.time_arri!3|))) (let ((l85 (+ |state.time_arri!3| 20))) (let ((l86 (= |next.time_arri!3| l85))) (let ((l87 (not |state.chan_b_com_prev_button_pressed|))) (let ((l88 (and |state.button_pressed| l87))) (let ((l89 (not |state.chan_b_com_auto_mode|))) (let ((l90 (ite l88 l89 |state.chan_b_com_auto_mode|))) (let ((l91 (= |next.chan_b_com_auto_mode| l90))) (let ((l92 (= |next.chan_b_com_prev_button_pressed| |state.button_pressed|))) (let ((l93 (and l84 l86 l91 l92 l22 l59 l60 l28 l27 l61 l31 l32 l33 l34 l35 l36 l37 l38 l39 l43 l44 l45 l46 l47 l48))) (let ((l94 (= |state.time| |state.time_arri!4|))) (let ((l95 (+ |state.time_arri!4| 20))) (let ((l96 (= |next.time_arri!4| l95))) (let ((l97 (not |state.chan_b_mon_prev_button_pressed|))) (let ((l98 (and |state.button_pressed| l97))) (let ((l99 (not |state.chan_b_mon_auto_mode|))) (let ((l100 (ite l98 l99 |state.chan_b_mon_auto_mode|))) (let ((l101 (= |next.chan_b_mon_auto_mode| l100))) (let ((l102 (= |state.chan_b_com_auto_mode| |next.chan_b_mon_auto_mode|))) (let ((l103 (<= |state.chan_b_mon_disagree_count| 3))) (let ((l104 (+ |state.chan_b_mon_disagree_count| 1))) (let ((l105 (ite l103 l104 |state.chan_b_mon_disagree_count|))) (let ((l106 (ite l102 0 l105))) (let ((l107 (= |next.chan_b_mon_disagree_count| l106))) (let ((l108 (<= |next.chan_b_mon_disagree_count| 2))) (let ((l109 (not l108))) (let ((l110 (= |next.chan_b_mon_agreement_failure| l109))) (let ((l111 (not |next.chan_b_mon_agreement_failure|))) (let ((l112 (= |next.chan_b_in_control| l111))) (let ((l113 (= |next.chan_b_mon_prev_button_pressed| |state.button_pressed|))) (let ((l114 (and l94 l96 l101 l107 l110 l112 l113 l22 l59 l60 l28 l27 l61 l31 l32 l33 l34 l35 l36 l37 l38 l39 l40 l41 l42))) (let ((l115 (or l49 l62 l83 l93 l114))) (let ((l116 (- 1))) (let ((l117 (= |state.time| l116))) (let ((l118 (ite l117 |state.time_prev| |state.time|))) (let ((l119 (= |next.time_prev| l118))) (let ((l120 (not |state.seen_rising_edge|))) (let ((l121 (not |state.button_pressed_prev|))) (let ((l122 (and l121 |state.button_pressed|))) (let ((l123 (ite l120 l122 |state.seen_rising_edge|))) (let ((l124 (= |next.seen_rising_edge| l123))) (let ((l125 (and l115 l119 l124))) (let ((l126 (<= |state.time| |state.time_arri!0|))) (let ((l127 (<= |state.time| |state.time_arri!1|))) (let ((l128 (<= |state.time| |state.time_arri!2|))) (let ((l129 (<= |state.time| |state.time_arri!3|))) (let ((l130 (<= |state.time| |state.time_arri!4|))) (let ((l131 (or l0 l50 l63 l84 l94))) (let ((l132 (<= 0 |state.NODE2_PHASE|))) (let ((l133 (< |state.NODE2_PHASE| 20))) (let ((l134 (<= 0 |state.NODE3_PHASE|))) (let ((l135 (< |state.NODE3_PHASE| 20))) (let ((l136 (<= 0 |state.NODE4_PHASE|))) (let ((l137 (< |state.NODE4_PHASE| 20))) (let ((l138 (<= 0 |state.NODE5_PHASE|))) (let ((l139 (< |state.NODE5_PHASE| 20))) (let ((l140 (<= 0 |state.button_dispatch_time|))) (let ((l141 (<= 0 |state.button_width|))) (let ((l142 (<= 0 |state.time|))) (let ((l143 (<= 0 |state.time_arri!0|))) (let ((l144 (<= 0 |state.time_arri!1|))) (let ((l145 (<= 0 |state.time_arri!2|))) (let ((l146 (<= 0 |state.time_arri!3|))) (let ((l147 (<= 0 |state.time_arri!4|))) (let ((l148 (<= 0 |state.time_prev|))) (let ((l149 (and l126 l127 l128 l129 l130 l131 l132 l133 l134 l135 l136 l137 l138 l139 l140 l141 l142 l143 l144 l145 l146 l147 l148))) (let ((l150 (<= |next.time| |next.time_arri!0|))) (let ((l151 (<= |next.time| |next.time_arri!1|))) (let ((l152 (<= |next.time| |next.time_arri!2|))) (let ((l153 (<= |next.time| |next.time_arri!3|))) (let ((l154 (<= |next.time| |next.time_arri!4|))) (let ((l155 (= |next.time| |next.time_arri!0|))) (let ((l156 (= |next.time| |next.time_arri!1|))) (let ((l157 (= |next.time| |next.time_arri!2|))) (let ((l158 (= |next.time| |next.time_arri!3|))) (let ((l159 (= |next.time| |next.time_arri!4|))) (let ((l160 (or l155 l156 l157 l158 l159))) (let ((l161 (<= 0 |next.NODE2_PHASE|))) (let ((l162 (< |next.NODE2_PHASE| 20))) (let ((l163 (<= 0 |next.NODE3_PHASE|))) (let ((l164 (< |next.NODE3_PHASE| 20))) (let ((l165 (<= 0 |next.NODE4_PHASE|))) (let ((l166 (< |next.NODE4_PHASE| 20))) (let ((l167 (<= 0 |next.NODE5_PHASE|))) (let ((l168 (< |next.NODE5_PHASE| 20))) (let ((l169 (<= 0 |next.button_dispatch_time|))) (let ((l170 (<= 0 |next.button_width|))) (let ((l171 (<= 0 |next.time|))) (let ((l172 (<= 0 |next.time_arri!0|))) (let ((l173 (<= 0 |next.time_arri!1|))) (let ((l174 (<= 0 |next.time_arri!2|))) (let ((l175 (<= 0 |next.time_arri!3|))) (let ((l176 (<= 0 |next.time_arri!4|))) (let ((l177 (<= 0 |next.time_prev|))) (let ((l178 (and l150 l151 l152 l153 l154 l160 l161 l162 l163 l164 l165 l166 l167 l168 l169 l170 l171 l172 l173 l174 l175 l176 l177))) (let ((l179 (and l125 l149 l178))) l179))))))))))))))))))))))))))))))))))))))))))))))))))))))))))))))))))))))))))))))))))))))))))))))))))))))))))))))))))))))))))))))))))))))))))))))))))))))))))))))))))))))))))))))))))))
        )
        (invariant next.button_count next.button_dispatch_time next.button_frame_count next.button_pressed next.button_pressed_prev next.button_width next.chan_a_com_auto_mode next.chan_a_com_prev_button next.chan_a_com_prev_button_pressed next.chan_a_in_control next.chan_a_mon_agreement_failure next.chan_a_mon_auto_mode next.chan_a_mon_disagree_count next.chan_a_mon_prev_button next.chan_a_mon_prev_button_pressed next.chan_b_com_auto_mode next.chan_b_com_prev_button next.chan_b_com_prev_button_pressed next.chan_b_in_control next.chan_b_mon_agreement_failure next.chan_b_mon_auto_mode next.chan_b_mon_disagree_count next.chan_b_mon_prev_button next.chan_b_mon_prev_button_pressed next.complete_arr!0 next.complete_arr!1 next.complete_arr!2 next.complete_arr!3 next.complete_arr!4 next.seen_rising_edge next.time next.time_arri!0 next.time_arri!1 next.time_arri!2 next.time_arri!3 next.time_arri!4 next.time_prev next.NODE2_PHASE next.NODE3_PHASE next.NODE4_PHASE next.NODE5_PHASE)
    )
  )
)

;; Property
(assert
  (forall ((state.button_count Real) (state.button_dispatch_time Real) (state.button_frame_count Real) (state.button_pressed Bool) (state.button_pressed_prev Bool) (state.button_width Real) (state.chan_a_com_auto_mode Bool) (state.chan_a_com_prev_button Bool) (state.chan_a_com_prev_button_pressed Bool) (state.chan_a_in_control Bool) (state.chan_a_mon_agreement_failure Bool) (state.chan_a_mon_auto_mode Bool) (state.chan_a_mon_disagree_count Real) (state.chan_a_mon_prev_button Bool) (state.chan_a_mon_prev_button_pressed Bool) (state.chan_b_com_auto_mode Bool) (state.chan_b_com_prev_button Bool) (state.chan_b_com_prev_button_pressed Bool) (state.chan_b_in_control Bool) (state.chan_b_mon_agreement_failure Bool) (state.chan_b_mon_auto_mode Bool) (state.chan_b_mon_disagree_count Real) (state.chan_b_mon_prev_button Bool) (state.chan_b_mon_prev_button_pressed Bool) (state.complete_arr!0 Bool) (state.complete_arr!1 Bool) (state.complete_arr!2 Bool) (state.complete_arr!3 Bool) (state.complete_arr!4 Bool) (state.seen_rising_edge Bool) (state.time Real) (state.time_arri!0 Real) (state.time_arri!1 Real) (state.time_arri!2 Real) (state.time_arri!3 Real) (state.time_arri!4 Real) (state.time_prev Real) (state.NODE2_PHASE Real) (state.NODE3_PHASE Real) (state.NODE4_PHASE Real) (state.NODE5_PHASE Real))
    (=> (invariant state.button_count state.button_dispatch_time state.button_frame_count state.button_pressed state.button_pressed_prev state.button_width state.chan_a_com_auto_mode state.chan_a_com_prev_button state.chan_a_com_prev_button_pressed state.chan_a_in_control state.chan_a_mon_agreement_failure state.chan_a_mon_auto_mode state.chan_a_mon_disagree_count state.chan_a_mon_prev_button state.chan_a_mon_prev_button_pressed state.chan_b_com_auto_mode state.chan_b_com_prev_button state.chan_b_com_prev_button_pressed state.chan_b_in_control state.chan_b_mon_agreement_failure state.chan_b_mon_auto_mode state.chan_b_mon_disagree_count state.chan_b_mon_prev_button state.chan_b_mon_prev_button_pressed state.complete_arr!0 state.complete_arr!1 state.complete_arr!2 state.complete_arr!3 state.complete_arr!4 state.seen_rising_edge state.time state.time_arri!0 state.time_arri!1 state.time_arri!2 state.time_arri!3 state.time_arri!4 state.time_prev state.NODE2_PHASE state.NODE3_PHASE state.NODE4_PHASE state.NODE5_PHASE)
        (let ((l0 (not |state.chan_a_mon_agreement_failure|))) l0)
    )
  )
)

;; Check the property
(check-sat)
